networks/zoo_254_12830/zoo_254_12830-lower.txt
Number of groups: 126
Flow 1: {1 103 0} {103 2 0} {2 129 0} 
Flow 2: {103 3 0} {3 130 0} 
Flow 3: {103 4 0} {4 131 0} 
Flow 4: {103 5 0} {5 132 0} 
Flow 5: {103 6 0} {6 133 0} 
Flow 6: {103 7 0} {7 134 0} 
Flow 7: {103 8 0} {8 135 0} 
Flow 8: {103 9 0} {9 136 0} 
Flow 9: {103 10 0} {10 137 0} 
Flow 10: {47 11 0} {11 138 0} 
Flow 11: {67 12 0} {12 139 0} 
Flow 11: {103 61 0} {61 47 0} Flow 12: {14 13 0} {13 140 0} 
Flow 13: {47 14 0} {14 141 0} 
Flow 14: {67 15 0} {15 142 0} 
Flow 14: {47 67 0} Flow 15: {67 16 0} {16 143 0} 
Flow 16: {67 17 0} {17 144 0} 
Flow 17: {67 18 0} {18 145 0} 
Flow 18: {14 19 0} {19 146 0} 
Flow 19: {14 20 0} {20 147 0} 
Flow 20: {44 21 0} {21 148 0} 
Flow 21: {14 44 0} {44 22 0} {22 149 0} 
Flow 22: {44 23 0} {23 150 0} 
Flow 23: {44 24 0} {24 151 0} 
Flow 24: {44 26 0} {26 153 0} 
Flow 25: {44 27 0} {27 154 0} 
Flow 26: {127 28 0} {28 155 0} 
Flow 27: {127 29 0} {29 156 0} 
Flow 27: {103 127 0} Flow 28: {127 30 0} {30 157 0} 
Flow 29: {127 31 0} {31 158 0} 
Flow 30: {127 32 0} {32 159 0} 
Flow 31: {127 33 0} {33 160 0} 
Flow 32: {127 34 0} {34 161 0} 
Flow 33: {127 35 0} {35 162 0} 
Flow 34: {127 36 0} {36 163 0} 
Flow 35: {127 37 0} {37 164 0} 
Flow 36: {44 38 0} {38 165 0} 
Flow 37: {44 39 0} {39 166 0} 
Flow 38: {14 40 0} {40 167 0} 
Flow 39: {14 41 0} {41 168 0} 
Flow 40: {14 42 0} {42 169 0} 
Flow 41: {14 43 0} {43 170 0} 
Flow 42: {44 171 0} 
Flow 43: {44 45 0} {45 172 0} 
Flow 44: {47 174 0} 
Flow 45: {51 48 0} {48 175 0} 
Flow 45: {61 60 0} Flow 46: {60 51 0} {51 49 0} {49 176 0} 
Flow 47: {51 50 0} {50 177 0} 
Flow 48: {73 53 0} {53 180 0} 
Flow 49: {127 73 0} {73 54 0} {54 181 0} 
Flow 50: {73 55 0} {55 182 0} 
Flow 51: {51 56 0} {56 183 0} 
Flow 52: {51 57 0} {57 184 0} 
Flow 53: {51 58 0} {58 185 0} 
Flow 54: {51 59 0} {59 186 0} 
Flow 55: {60 187 0} 
Flow 56: {61 188 0} 
Flow 57: {51 62 0} {62 189 0} 
Flow 58: {51 63 0} {63 190 0} 
Flow 59: {51 65 0} {65 192 0} 
Flow 60: {44 66 0} {66 193 0} 
Flow 61: {67 194 0} 
Flow 62: {67 68 0} {68 195 0} 
Flow 63: {44 69 0} {69 196 0} 
Flow 64: {73 70 0} {70 197 0} 
Flow 65: {73 71 0} {71 198 0} 
Flow 66: {73 72 0} {72 199 0} 
Flow 67: {73 200 0} 
Flow 68: {73 74 0} {74 201 0} 
Flow 69: {73 75 0} {75 202 0} 
Flow 70: {73 76 0} {76 203 0} 
Flow 71: {73 78 0} {78 205 0} 
Flow 72: {73 79 0} {79 206 0} 
Flow 73: {73 80 0} {80 207 0} 
Flow 74: {73 81 0} {81 208 0} 
Flow 75: {73 82 0} {82 209 0} 
Flow 76: {73 83 0} {83 210 0} 
Flow 77: {73 85 0} {85 212 0} 
Flow 78: {73 86 0} {86 213 0} 
Flow 79: {73 87 0} {87 214 0} 
Flow 80: {73 88 0} {88 215 0} 
Flow 81: {73 89 0} {89 216 0} 
Flow 82: {44 90 0} {90 217 0} 
Flow 83: {44 91 0} {91 218 0} 
Flow 84: {44 93 0} {93 220 0} 
Flow 85: {44 96 0} {96 223 0} 
Flow 86: {44 97 0} {97 224 0} 
Flow 87: {44 99 0} {99 226 0} 
Flow 88: {44 100 0} {100 227 0} 
Flow 89: {44 101 0} {101 228 0} 
Flow 90: {103 102 0} {102 229 0} 
Flow 91: {103 230 0} 
Flow 92: {127 106 0} {106 233 0} 
Flow 93: {127 107 0} {107 234 0} 
Flow 94: {127 108 0} {108 235 0} 
Flow 95: {127 109 0} {109 236 0} 
Flow 96: {127 110 0} {110 237 0} 
Flow 97: {127 112 0} {112 239 0} 
Flow 98: {127 113 0} {113 240 0} 
Flow 99: {44 115 0} {115 242 0} 
Flow 100: {44 117 0} {117 244 0} 
Flow 101: {44 118 0} {118 245 0} 
Flow 102: {44 119 0} {119 246 0} 
Flow 103: {120 247 0} 
Flow 104: {127 120 0} {120 121 0} {121 248 0} 
Flow 105: {120 122 0} {122 249 0} 
Flow 106: {120 123 0} {123 250 0} 
Flow 107: {120 124 0} {124 251 0} 
Flow 108: {120 125 0} {125 252 0} 
Flow 109: {127 254 0} 
Flow 110: {2 103 0} Flow 119: {103 1 0} {1 128 0} 
Flow 119: {3 103 0} Flow 142: {44 25 0} {25 152 0} 
Flow 163: {14 46 0} {46 173 0} 
Flow 168: {73 52 0} {52 179 0} 
Flow 192: {73 77 0} {77 204 0} 
Flow 199: {73 84 0} {84 211 0} 
Flow 210: {44 98 0} {98 225 0} 
Flow 221: {127 111 0} {111 238 0} 
Flow 224: {44 114 0} {114 241 0} 
Flow 226: {44 116 0} {116 243 0} 
Flow 237: {4 103 0} Flow 352: {5 103 0} Flow 463: {6 103 0} Flow 570: {7 103 0} Flow 578: {8 103 0} Flow 581: {9 103 0} Flow 690: {10 103 0} Flow 791: {60 61 0} Flow 792: {11 60 0} {61 103 0} Flow 801: {11 47 0} Flow 803: {11 14 0} Flow 818: {51 73 0} {73 127 0} Flow 840: {51 178 0} 
Flow 853: {51 64 0} {64 191 0} 
Flow 881: {44 92 0} {92 219 0} 
Flow 912: {12 67 0} Flow 913: {67 47 0} {47 61 0} Flow 1025: {13 14 0} Flow 1026: {14 47 0} Flow 1069: {14 11 0} Flow 1226: {44 94 0} {94 221 0} 
Flow 1235: {127 105 0} {105 232 0} 
Flow 1256: {120 126 0} {126 253 0} 
Flow 1258: {15 67 0} Flow 1352: {16 67 0} Flow 1467: {17 67 0} Flow 1576: {18 67 0} Flow 1694: {19 14 0} Flow 1812: {20 14 0} Flow 1919: {21 44 0} Flow 1920: {44 14 0} Flow 1987: {22 44 0} Flow 2099: {23 44 0} Flow 2217: {24 44 0} Flow 2332: {25 44 0} Flow 2450: {26 44 0} Flow 2568: {27 44 0} Flow 2683: {28 127 0} Flow 2684: {127 103 0} Flow 2729: {73 51 0} Flow 2740: {51 60 0} Flow 2801: {29 127 0} Flow 2805: {60 11 0} Flow 2863: {30 127 0} Flow 2972: {31 127 0} Flow 3082: {32 127 0} Flow 3200: {33 127 0} Flow 3318: {34 127 0} Flow 3433: {35 127 0} Flow 3551: {36 127 0} Flow 3669: {37 127 0} Flow 3787: {38 44 0} Flow 3905: {39 44 0} Flow 4023: {40 14 0} Flow 4141: {41 14 0} Flow 4255: {42 14 0} Flow 4313: {43 14 0} Flow 4521: {44 95 0} {95 222 0} 
Flow 4553: {45 44 0} Flow 4669: {46 14 0} Flow 4683: {48 51 0} Flow 4801: {49 51 0} Flow 4919: {50 51 0} Flow 5119: {52 73 0} Flow 5237: {53 73 0} Flow 5352: {54 73 0} Flow 5459: {55 73 0} Flow 5571: {56 51 0} Flow 5679: {57 51 0} Flow 5797: {58 51 0} Flow 5915: {59 51 0} Flow 6159: {62 51 0} Flow 6277: {63 51 0} Flow 6392: {64 51 0} Flow 6511: {65 51 0} Flow 6629: {66 44 0} Flow 6867: {68 67 0} Flow 6985: {69 44 0} Flow 7087: {70 73 0} Flow 7196: {71 73 0} Flow 7305: {72 73 0} Flow 7546: {74 73 0} Flow 7637: {75 73 0} Flow 7739: {76 73 0} Flow 7854: {77 73 0} Flow 7971: {78 73 0} Flow 8089: {79 73 0} Flow 8207: {80 73 0} Flow 8215: {81 73 0} Flow 8333: {82 73 0} Flow 8442: {83 73 0} Flow 8560: {84 73 0} Flow 8671: {85 73 0} Flow 8748: {86 73 0} Flow 8863: {87 73 0} Flow 8975: {88 73 0} Flow 9093: {89 73 0} Flow 9181: {90 44 0} Flow 9296: {91 44 0} Flow 9385: {92 44 0} Flow 9501: {93 44 0} Flow 9507: {94 44 0} Flow 9623: {95 44 0} Flow 9742: {96 44 0} Flow 9853: {97 44 0} Flow 9944: {98 44 0} Flow 10051: {99 44 0} Flow 10161: {100 44 0} Flow 10279: {101 44 0} Flow 10386: {102 103 0} Flow 10623: {104 127 0} Flow 10631: {105 127 0} Flow 10741: {106 127 0} Flow 10857: {107 127 0} Flow 10951: {108 127 0} Flow 11063: {109 127 0} Flow 11181: {110 127 0} Flow 11272: {111 127 0} Flow 11357: {112 127 0} Flow 11456: {113 127 0} Flow 11571: {114 44 0} Flow 11608: {115 44 0} Flow 11715: {116 44 0} Flow 11802: {117 44 0} Flow 11911: {118 44 0} Flow 11916: {119 44 0} Flow 12022: {120 127 0} Flow 12141: {121 120 0} Flow 12150: {122 120 0} Flow 12265: {123 120 0} Flow 12356: {124 120 0} Flow 12474: {125 120 0} Flow 12592: {126 120 0} Time taken running everything: 1 seconds
