networks/zoo_254_12830/zoo_254_12830-lower.sol
<?xml version = "1.0" encoding="UTF-8" standalone="yes"?>
<CPLEXSolution version="1.2">
 <header
   problemName="networks/zoo_254_12830/zoo_254_12830-lower.lp"
   solutionName="incumbent"
   solutionIndex="-1"
   objectiveValue="126"
   solutionTypeValue="3"
   solutionTypeString="primal"
   solutionStatusValue="101"
   solutionStatusString="integer optimal solution"
   solutionMethodString="mip"
   primalFeasible="1"
   dualFeasible="1"
   MIPNodes="0"
   MIPIterations="0"
   writeLevel="3"/>
 <quality
   epInt="1.0000000000000001e-05"
   epRHS="9.9999999999999995e-07"
   maxIntInfeas="0"
   maxPrimalInfeas="0"
   maxX="1"
   maxSlack="1"/>
 <variables>
  <variable name="Y(1,2)" index="1" value="1"/>
  <variable name="Y(2,3)" index="255" value="1"/>
  <variable name="Y(3,4)" index="509" value="1"/>
  <variable name="Y(4,5)" index="763" value="1"/>
  <variable name="Y(5,6)" index="1017" value="1"/>
  <variable name="Y(6,7)" index="1271" value="1"/>
  <variable name="Y(7,8)" index="1525" value="1"/>
  <variable name="Y(8,9)" index="1779" value="1"/>
  <variable name="Y(9,10)" index="2033" value="1"/>
  <variable name="Y(10,11)" index="2287" value="1"/>
  <variable name="Y(11,12)" index="2541" value="1"/>
  <variable name="Y(12,13)" index="2795" value="1"/>
  <variable name="Y(13,14)" index="3049" value="1"/>
  <variable name="Y(14,15)" index="3303" value="1"/>
  <variable name="Y(15,16)" index="3557" value="1"/>
  <variable name="Y(16,17)" index="3811" value="1"/>
  <variable name="Y(17,18)" index="4065" value="1"/>
  <variable name="Y(18,19)" index="4319" value="1"/>
  <variable name="Y(19,20)" index="4573" value="1"/>
  <variable name="Y(20,21)" index="4827" value="1"/>
  <variable name="Y(21,22)" index="5081" value="1"/>
  <variable name="Y(22,23)" index="5335" value="1"/>
  <variable name="Y(23,24)" index="5589" value="1"/>
  <variable name="Y(24,26)" index="5844" value="1"/>
  <variable name="Y(25,27)" index="6098" value="1"/>
  <variable name="Y(26,28)" index="6352" value="1"/>
  <variable name="Y(27,29)" index="6606" value="1"/>
  <variable name="Y(28,30)" index="6860" value="1"/>
  <variable name="Y(29,31)" index="7114" value="1"/>
  <variable name="Y(30,32)" index="7368" value="1"/>
  <variable name="Y(31,33)" index="7622" value="1"/>
  <variable name="Y(32,34)" index="7876" value="1"/>
  <variable name="Y(33,35)" index="8130" value="1"/>
  <variable name="Y(34,36)" index="8384" value="1"/>
  <variable name="Y(35,37)" index="8638" value="1"/>
  <variable name="Y(36,38)" index="8892" value="1"/>
  <variable name="Y(37,39)" index="9146" value="1"/>
  <variable name="Y(38,40)" index="9400" value="1"/>
  <variable name="Y(39,41)" index="9654" value="1"/>
  <variable name="Y(40,42)" index="9908" value="1"/>
  <variable name="Y(41,43)" index="10162" value="1"/>
  <variable name="Y(42,44)" index="10416" value="1"/>
  <variable name="Y(43,45)" index="10670" value="1"/>
  <variable name="Y(44,47)" index="10925" value="1"/>
  <variable name="Y(45,48)" index="11179" value="1"/>
  <variable name="Y(46,49)" index="11433" value="1"/>
  <variable name="Y(47,50)" index="11687" value="1"/>
  <variable name="Y(48,53)" index="11943" value="1"/>
  <variable name="Y(49,54)" index="12197" value="1"/>
  <variable name="Y(50,55)" index="12451" value="1"/>
  <variable name="Y(51,56)" index="12705" value="1"/>
  <variable name="Y(52,57)" index="12959" value="1"/>
  <variable name="Y(53,58)" index="13213" value="1"/>
  <variable name="Y(54,59)" index="13467" value="1"/>
  <variable name="Y(55,60)" index="13721" value="1"/>
  <variable name="Y(56,61)" index="13975" value="1"/>
  <variable name="Y(57,62)" index="14229" value="1"/>
  <variable name="Y(58,63)" index="14483" value="1"/>
  <variable name="Y(59,65)" index="14738" value="1"/>
  <variable name="Y(60,66)" index="14992" value="1"/>
  <variable name="Y(61,67)" index="15246" value="1"/>
  <variable name="Y(62,68)" index="15500" value="1"/>
  <variable name="Y(63,69)" index="15754" value="1"/>
  <variable name="Y(64,70)" index="16008" value="1"/>
  <variable name="Y(65,71)" index="16262" value="1"/>
  <variable name="Y(66,72)" index="16516" value="1"/>
  <variable name="Y(67,73)" index="16770" value="1"/>
  <variable name="Y(68,74)" index="17024" value="1"/>
  <variable name="Y(69,75)" index="17278" value="1"/>
  <variable name="Y(70,76)" index="17532" value="1"/>
  <variable name="Y(71,78)" index="17787" value="1"/>
  <variable name="Y(72,79)" index="18041" value="1"/>
  <variable name="Y(73,80)" index="18295" value="1"/>
  <variable name="Y(74,81)" index="18549" value="1"/>
  <variable name="Y(75,82)" index="18803" value="1"/>
  <variable name="Y(76,83)" index="19057" value="1"/>
  <variable name="Y(77,85)" index="19312" value="1"/>
  <variable name="Y(78,86)" index="19566" value="1"/>
  <variable name="Y(79,87)" index="19820" value="1"/>
  <variable name="Y(80,88)" index="20074" value="1"/>
  <variable name="Y(81,89)" index="20328" value="1"/>
  <variable name="Y(82,90)" index="20582" value="1"/>
  <variable name="Y(83,91)" index="20836" value="1"/>
  <variable name="Y(84,93)" index="21091" value="1"/>
  <variable name="Y(85,96)" index="21347" value="1"/>
  <variable name="Y(86,97)" index="21601" value="1"/>
  <variable name="Y(87,99)" index="21856" value="1"/>
  <variable name="Y(88,100)" index="22110" value="1"/>
  <variable name="Y(89,101)" index="22364" value="1"/>
  <variable name="Y(90,102)" index="22618" value="1"/>
  <variable name="Y(91,103)" index="22872" value="1"/>
  <variable name="Y(92,106)" index="23128" value="1"/>
  <variable name="Y(93,107)" index="23382" value="1"/>
  <variable name="Y(94,108)" index="23636" value="1"/>
  <variable name="Y(95,109)" index="23890" value="1"/>
  <variable name="Y(96,110)" index="24144" value="1"/>
  <variable name="Y(97,112)" index="24399" value="1"/>
  <variable name="Y(98,113)" index="24653" value="1"/>
  <variable name="Y(99,115)" index="24908" value="1"/>
  <variable name="Y(100,117)" index="25163" value="1"/>
  <variable name="Y(101,118)" index="25417" value="1"/>
  <variable name="Y(102,119)" index="25671" value="1"/>
  <variable name="Y(103,120)" index="25925" value="1"/>
  <variable name="Y(104,121)" index="26179" value="1"/>
  <variable name="Y(105,122)" index="26433" value="1"/>
  <variable name="Y(106,123)" index="26687" value="1"/>
  <variable name="Y(107,124)" index="26941" value="1"/>
  <variable name="Y(108,125)" index="27195" value="1"/>
  <variable name="Y(109,127)" index="27450" value="1"/>
  <variable name="Y(119,1)" index="29854" value="1"/>
  <variable name="Y(142,25)" index="35697" value="1"/>
  <variable name="Y(163,46)" index="41031" value="1"/>
  <variable name="Y(168,52)" index="42302" value="1"/>
  <variable name="Y(192,77)" index="48399" value="1"/>
  <variable name="Y(199,84)" index="50177" value="1"/>
  <variable name="Y(210,98)" index="52974" value="1"/>
  <variable name="Y(221,111)" index="55770" value="1"/>
  <variable name="Y(224,114)" index="56532" value="1"/>
  <variable name="Y(226,116)" index="57040" value="1"/>
  <variable name="Y(840,51)" index="212317" value="1"/>
  <variable name="Y(853,64)" index="215619" value="1"/>
  <variable name="Y(881,92)" index="222731" value="1"/>
  <variable name="Y(1226,94)" index="310018" value="1"/>
  <variable name="Y(1235,105)" index="312306" value="1"/>
  <variable name="Y(1256,126)" index="317640" value="1"/>
  <variable name="Y(4521,95)" index="1143654" value="1"/>
  <variable name="X(1,103,1)" index="3245990" value="1"/>
  <variable name="X(1,128,119)" index="3258938" value="1"/>
  <variable name="X(2,103,110)" index="3271759" value="1"/>
  <variable name="X(2,129,1)" index="3284480" value="1"/>
  <variable name="X(3,103,119)" index="3297428" value="1"/>
  <variable name="X(3,130,2)" index="3310141" value="1"/>
  <variable name="X(4,103,237)" index="3323206" value="1"/>
  <variable name="X(4,131,3)" index="3335802" value="1"/>
  <variable name="X(5,103,352)" index="3348981" value="1"/>
  <variable name="X(5,132,4)" index="3361463" value="1"/>
  <variable name="X(6,103,463)" index="3374752" value="1"/>
  <variable name="X(6,133,5)" index="3387124" value="1"/>
  <variable name="X(7,103,570)" index="3400519" value="1"/>
  <variable name="X(7,134,6)" index="3412785" value="1"/>
  <variable name="X(8,103,578)" index="3426187" value="1"/>
  <variable name="X(8,135,7)" index="3438446" value="1"/>
  <variable name="X(9,103,581)" index="3451850" value="1"/>
  <variable name="X(9,136,8)" index="3464107" value="1"/>
  <variable name="X(10,103,690)" index="3477619" value="1"/>
  <variable name="X(10,137,9)" index="3489768" value="1"/>
  <variable name="X(11,14,803)" index="3503392" value="1"/>
  <variable name="X(11,47,801)" index="3516220" value="1"/>
  <variable name="X(11,60,792)" index="3529041" value="1"/>
  <variable name="X(11,138,10)" index="3541089" value="1"/>
  <variable name="X(12,67,912)" index="3554821" value="1"/>
  <variable name="X(12,139,11)" index="3566750" value="1"/>
  <variable name="X(13,14,1025)" index="3580594" value="1"/>
  <variable name="X(13,140,12)" index="3592411" value="1"/>
  <variable name="X(14,11,1069)" index="3606298" value="1"/>
  <variable name="X(14,13,12)" index="3618071" value="1"/>
  <variable name="X(14,19,18)" index="3630907" value="1"/>
  <variable name="X(14,20,19)" index="3643738" value="1"/>
  <variable name="X(14,40,38)" index="3656587" value="1"/>
  <variable name="X(14,41,39)" index="3669418" value="1"/>
  <variable name="X(14,42,40)" index="3682249" value="1"/>
  <variable name="X(14,43,41)" index="3695080" value="1"/>
  <variable name="X(14,44,21)" index="3707890" value="1"/>
  <variable name="X(14,46,163)" index="3720862" value="1"/>
  <variable name="X(14,47,1026)" index="3734555" value="1"/>
  <variable name="X(14,141,13)" index="3746372" value="1"/>
  <variable name="X(15,67,1258)" index="3760447" value="1"/>
  <variable name="X(15,142,14)" index="3772033" value="1"/>
  <variable name="X(16,67,1352)" index="3786201" value="1"/>
  <variable name="X(16,143,15)" index="3797694" value="1"/>
  <variable name="X(17,67,1467)" index="3811976" value="1"/>
  <variable name="X(17,144,16)" index="3823355" value="1"/>
  <variable name="X(18,67,1576)" index="3837745" value="1"/>
  <variable name="X(18,145,17)" index="3849016" value="1"/>
  <variable name="X(19,14,1694)" index="3863523" value="1"/>
  <variable name="X(19,146,18)" index="3874677" value="1"/>
  <variable name="X(20,14,1812)" index="3889301" value="1"/>
  <variable name="X(20,147,19)" index="3900338" value="1"/>
  <variable name="X(21,44,1919)" index="3915068" value="1"/>
  <variable name="X(21,148,20)" index="3925999" value="1"/>
  <variable name="X(22,44,1987)" index="3940796" value="1"/>
  <variable name="X(22,149,21)" index="3951660" value="1"/>
  <variable name="X(23,44,2099)" index="3966568" value="1"/>
  <variable name="X(23,150,22)" index="3977321" value="1"/>
  <variable name="X(24,44,2217)" index="3992346" value="1"/>
  <variable name="X(24,151,23)" index="4002982" value="1"/>
  <variable name="X(25,44,2332)" index="4018121" value="1"/>
  <variable name="X(25,152,142)" index="4028761" value="1"/>
  <variable name="X(26,44,2450)" index="4043899" value="1"/>
  <variable name="X(26,153,24)" index="4054303" value="1"/>
  <variable name="X(27,44,2568)" index="4069677" value="1"/>
  <variable name="X(27,154,25)" index="4079964" value="1"/>
  <variable name="X(28,127,2683)" index="4095452" value="1"/>
  <variable name="X(28,155,26)" index="4105625" value="1"/>
  <variable name="X(29,127,2801)" index="4121230" value="1"/>
  <variable name="X(29,156,27)" index="4131286" value="1"/>
  <variable name="X(30,127,2863)" index="4146952" value="1"/>
  <variable name="X(30,157,28)" index="4156947" value="1"/>
  <variable name="X(31,127,2972)" index="4172721" value="1"/>
  <variable name="X(31,158,29)" index="4182608" value="1"/>
  <variable name="X(32,127,3082)" index="4198491" value="1"/>
  <variable name="X(32,159,30)" index="4208269" value="1"/>
  <variable name="X(33,127,3200)" index="4224269" value="1"/>
  <variable name="X(33,160,31)" index="4233930" value="1"/>
  <variable name="X(34,127,3318)" index="4250047" value="1"/>
  <variable name="X(34,161,32)" index="4259591" value="1"/>
  <variable name="X(35,127,3433)" index="4275822" value="1"/>
  <variable name="X(35,162,33)" index="4285252" value="1"/>
  <variable name="X(36,127,3551)" index="4301600" value="1"/>
  <variable name="X(36,163,34)" index="4310913" value="1"/>
  <variable name="X(37,127,3669)" index="4327378" value="1"/>
  <variable name="X(37,164,35)" index="4336574" value="1"/>
  <variable name="X(38,44,3787)" index="4353156" value="1"/>
  <variable name="X(38,165,36)" index="4362235" value="1"/>
  <variable name="X(39,44,3905)" index="4378934" value="1"/>
  <variable name="X(39,166,37)" index="4387896" value="1"/>
  <variable name="X(40,14,4023)" index="4404712" value="1"/>
  <variable name="X(40,167,38)" index="4413557" value="1"/>
  <variable name="X(41,14,4141)" index="4430490" value="1"/>
  <variable name="X(41,168,39)" index="4439218" value="1"/>
  <variable name="X(42,14,4255)" index="4456264" value="1"/>
  <variable name="X(42,169,40)" index="4464879" value="1"/>
  <variable name="X(43,14,4313)" index="4481982" value="1"/>
  <variable name="X(43,170,41)" index="4490540" value="1"/>
  <variable name="X(44,14,1920)" index="4505249" value="1"/>
  <variable name="X(44,21,20)" index="4516179" value="1"/>
  <variable name="X(44,22,21)" index="4529010" value="1"/>
  <variable name="X(44,23,22)" index="4541841" value="1"/>
  <variable name="X(44,24,23)" index="4554672" value="1"/>
  <variable name="X(44,25,142)" index="4567621" value="1"/>
  <variable name="X(44,26,24)" index="4580333" value="1"/>
  <variable name="X(44,27,25)" index="4593164" value="1"/>
  <variable name="X(44,38,36)" index="4606005" value="1"/>
  <variable name="X(44,39,37)" index="4618836" value="1"/>
  <variable name="X(44,45,43)" index="4631672" value="1"/>
  <variable name="X(44,66,60)" index="4644519" value="1"/>
  <variable name="X(44,69,63)" index="4657352" value="1"/>
  <variable name="X(44,90,82)" index="4670201" value="1"/>
  <variable name="X(44,91,83)" index="4683032" value="1"/>
  <variable name="X(44,92,881)" index="4696660" value="1"/>
  <variable name="X(44,93,84)" index="4708693" value="1"/>
  <variable name="X(44,94,1226)" index="4722665" value="1"/>
  <variable name="X(44,95,4521)" index="4738790" value="1"/>
  <variable name="X(44,96,85)" index="4747184" value="1"/>
  <variable name="X(44,97,86)" index="4760015" value="1"/>
  <variable name="X(44,98,210)" index="4772969" value="1"/>
  <variable name="X(44,99,87)" index="4785676" value="1"/>
  <variable name="X(44,100,88)" index="4798507" value="1"/>
  <variable name="X(44,101,89)" index="4811338" value="1"/>
  <variable name="X(44,114,224)" index="4824303" value="1"/>
  <variable name="X(44,115,99)" index="4837008" value="1"/>
  <variable name="X(44,116,226)" index="4849965" value="1"/>
  <variable name="X(44,117,100)" index="4862669" value="1"/>
  <variable name="X(44,118,101)" index="4875500" value="1"/>
  <variable name="X(44,119,102)" index="4888331" value="1"/>
  <variable name="X(44,171,42)" index="4901101" value="1"/>
  <variable name="X(45,44,4553)" index="4918442" value="1"/>
  <variable name="X(45,172,43)" index="4926762" value="1"/>
  <variable name="X(46,14,4669)" index="4944218" value="1"/>
  <variable name="X(46,173,163)" index="4952542" value="1"/>
  <variable name="X(47,11,10)" index="4965219" value="1"/>
  <variable name="X(47,14,13)" index="4978052" value="1"/>
  <variable name="X(47,61,913)" index="4991782" value="1"/>
  <variable name="X(47,67,14)" index="5003713" value="1"/>
  <variable name="X(47,174,44)" index="5016573" value="1"/>
  <variable name="X(48,51,4683)" index="5034042" value="1"/>
  <variable name="X(48,175,45)" index="5042234" value="1"/>
  <variable name="X(49,51,4801)" index="5059820" value="1"/>
  <variable name="X(49,176,46)" index="5067895" value="1"/>
  <variable name="X(50,51,4919)" index="5085598" value="1"/>
  <variable name="X(50,177,47)" index="5093556" value="1"/>
  <variable name="X(51,48,45)" index="5106384" value="1"/>
  <variable name="X(51,49,46)" index="5119215" value="1"/>
  <variable name="X(51,50,47)" index="5132046" value="1"/>
  <variable name="X(51,56,51)" index="5144880" value="1"/>
  <variable name="X(51,57,52)" index="5157711" value="1"/>
  <variable name="X(51,58,53)" index="5170542" value="1"/>
  <variable name="X(51,59,54)" index="5183373" value="1"/>
  <variable name="X(51,60,2740)" index="5198889" value="1"/>
  <variable name="X(51,62,57)" index="5209036" value="1"/>
  <variable name="X(51,63,58)" index="5221867" value="1"/>
  <variable name="X(51,64,853)" index="5235492" value="1"/>
  <variable name="X(51,65,59)" index="5247528" value="1"/>
  <variable name="X(51,73,818)" index="5261117" value="1"/>
  <variable name="X(51,178,840)" index="5273969" value="1"/>
  <variable name="X(52,73,5119)" index="5291078" value="1"/>
  <variable name="X(52,179,168)" index="5298957" value="1"/>
  <variable name="X(53,73,5237)" index="5316856" value="1"/>
  <variable name="X(53,180,48)" index="5324497" value="1"/>
  <variable name="X(54,73,5352)" index="5342631" value="1"/>
  <variable name="X(54,181,49)" index="5350158" value="1"/>
  <variable name="X(55,73,5459)" index="5368398" value="1"/>
  <variable name="X(55,182,50)" index="5375819" value="1"/>
  <variable name="X(56,51,5571)" index="5394170" value="1"/>
  <variable name="X(56,183,51)" index="5401480" value="1"/>
  <variable name="X(57,51,5679)" index="5419938" value="1"/>
  <variable name="X(57,184,52)" index="5427141" value="1"/>
  <variable name="X(58,51,5797)" index="5445716" value="1"/>
  <variable name="X(58,185,53)" index="5452802" value="1"/>
  <variable name="X(59,51,5915)" index="5471494" value="1"/>
  <variable name="X(59,186,54)" index="5478463" value="1"/>
  <variable name="X(60,11,2805)" index="5494044" value="1"/>
  <variable name="X(60,51,46)" index="5504115" value="1"/>
  <variable name="X(60,61,791)" index="5517690" value="1"/>
  <variable name="X(60,187,55)" index="5529784" value="1"/>
  <variable name="X(61,47,11)" index="5542570" value="1"/>
  <variable name="X(61,60,45)" index="5555434" value="1"/>
  <variable name="X(61,103,792)" index="5569011" value="1"/>
  <variable name="X(61,188,56)" index="5581105" value="1"/>
  <variable name="X(62,51,6159)" index="5600038" value="1"/>
  <variable name="X(62,189,57)" index="5606766" value="1"/>
  <variable name="X(63,51,6277)" index="5625816" value="1"/>
  <variable name="X(63,190,58)" index="5632427" value="1"/>
  <variable name="X(64,51,6392)" index="5651591" value="1"/>
  <variable name="X(64,191,853)" index="5658882" value="1"/>
  <variable name="X(65,51,6511)" index="5677370" value="1"/>
  <variable name="X(65,192,59)" index="5683748" value="1"/>
  <variable name="X(66,44,6629)" index="5703148" value="1"/>
  <variable name="X(66,193,60)" index="5709409" value="1"/>
  <variable name="X(67,12,11)" index="5722190" value="1"/>
  <variable name="X(67,15,14)" index="5735023" value="1"/>
  <variable name="X(67,16,15)" index="5747854" value="1"/>
  <variable name="X(67,17,16)" index="5760685" value="1"/>
  <variable name="X(67,18,17)" index="5773516" value="1"/>
  <variable name="X(67,47,913)" index="5787242" value="1"/>
  <variable name="X(67,68,62)" index="5799221" value="1"/>
  <variable name="X(67,194,61)" index="5812050" value="1"/>
  <variable name="X(68,67,6867)" index="5831686" value="1"/>
  <variable name="X(68,195,62)" index="5837711" value="1"/>
  <variable name="X(69,44,6985)" index="5857464" value="1"/>
  <variable name="X(69,196,63)" index="5863372" value="1"/>
  <variable name="X(70,73,7087)" index="5883226" value="1"/>
  <variable name="X(70,197,64)" index="5889033" value="1"/>
  <variable name="X(71,73,7196)" index="5908995" value="1"/>
  <variable name="X(71,198,65)" index="5914694" value="1"/>
  <variable name="X(72,73,7305)" index="5934764" value="1"/>
  <variable name="X(72,199,66)" index="5940355" value="1"/>
  <variable name="X(73,51,2729)" index="5955848" value="1"/>
  <variable name="X(73,52,168)" index="5966117" value="1"/>
  <variable name="X(73,53,48)" index="5978827" value="1"/>
  <variable name="X(73,54,49)" index="5991658" value="1"/>
  <variable name="X(73,55,50)" index="6004489" value="1"/>
  <variable name="X(73,70,64)" index="6017333" value="1"/>
  <variable name="X(73,71,65)" index="6030164" value="1"/>
  <variable name="X(73,72,66)" index="6042995" value="1"/>
  <variable name="X(73,74,68)" index="6055827" value="1"/>
  <variable name="X(73,75,69)" index="6068658" value="1"/>
  <variable name="X(73,76,70)" index="6081489" value="1"/>
  <variable name="X(73,77,192)" index="6094441" value="1"/>
  <variable name="X(73,78,71)" index="6107150" value="1"/>
  <variable name="X(73,79,72)" index="6119981" value="1"/>
  <variable name="X(73,80,73)" index="6132812" value="1"/>
  <variable name="X(73,81,74)" index="6145643" value="1"/>
  <variable name="X(73,82,75)" index="6158474" value="1"/>
  <variable name="X(73,83,76)" index="6171305" value="1"/>
  <variable name="X(73,84,199)" index="6184258" value="1"/>
  <variable name="X(73,85,77)" index="6196966" value="1"/>
  <variable name="X(73,86,78)" index="6209797" value="1"/>
  <variable name="X(73,87,79)" index="6222628" value="1"/>
  <variable name="X(73,88,80)" index="6235459" value="1"/>
  <variable name="X(73,89,81)" index="6248290" value="1"/>
  <variable name="X(73,127,818)" index="6261857" value="1"/>
  <variable name="X(73,200,67)" index="6273936" value="1"/>
  <variable name="X(74,73,7546)" index="6294245" value="1"/>
  <variable name="X(74,201,68)" index="6299597" value="1"/>
  <variable name="X(75,73,7637)" index="6319996" value="1"/>
  <variable name="X(75,202,69)" index="6325258" value="1"/>
  <variable name="X(76,73,7739)" index="6345758" value="1"/>
  <variable name="X(76,203,70)" index="6350919" value="1"/>
  <variable name="X(77,73,7854)" index="6371533" value="1"/>
  <variable name="X(77,204,192)" index="6376701" value="1"/>
  <variable name="X(78,73,7971)" index="6397310" value="1"/>
  <variable name="X(78,205,71)" index="6402240" value="1"/>
  <variable name="X(79,73,8089)" index="6423088" value="1"/>
  <variable name="X(79,206,72)" index="6427901" value="1"/>
  <variable name="X(80,73,8207)" index="6448866" value="1"/>
  <variable name="X(80,207,73)" index="6453562" value="1"/>
  <variable name="X(81,73,8215)" index="6474534" value="1"/>
  <variable name="X(81,208,74)" index="6479223" value="1"/>
  <variable name="X(82,73,8333)" index="6500312" value="1"/>
  <variable name="X(82,209,75)" index="6504884" value="1"/>
  <variable name="X(83,73,8442)" index="6526081" value="1"/>
  <variable name="X(83,210,76)" index="6530545" value="1"/>
  <variable name="X(84,73,8560)" index="6551859" value="1"/>
  <variable name="X(84,211,199)" index="6556328" value="1"/>
  <variable name="X(85,73,8671)" index="6577630" value="1"/>
  <variable name="X(85,212,77)" index="6581866" value="1"/>
  <variable name="X(86,73,8748)" index="6603367" value="1"/>
  <variable name="X(86,213,78)" index="6607527" value="1"/>
  <variable name="X(87,73,8863)" index="6629142" value="1"/>
  <variable name="X(87,214,79)" index="6633188" value="1"/>
  <variable name="X(88,73,8975)" index="6654914" value="1"/>
  <variable name="X(88,215,80)" index="6658849" value="1"/>
  <variable name="X(89,73,9093)" index="6680692" value="1"/>
  <variable name="X(89,216,81)" index="6684510" value="1"/>
  <variable name="X(90,44,9181)" index="6706440" value="1"/>
  <variable name="X(90,217,82)" index="6710171" value="1"/>
  <variable name="X(91,44,9296)" index="6732215" value="1"/>
  <variable name="X(91,218,83)" index="6735832" value="1"/>
  <variable name="X(92,44,9385)" index="6757964" value="1"/>
  <variable name="X(92,219,881)" index="6762290" value="1"/>
  <variable name="X(93,44,9501)" index="6783740" value="1"/>
  <variable name="X(93,220,84)" index="6787153" value="1"/>
  <variable name="X(94,44,9507)" index="6809406" value="1"/>
  <variable name="X(94,221,1226)" index="6813955" value="1"/>
  <variable name="X(95,44,9623)" index="6835182" value="1"/>
  <variable name="X(95,222,4521)" index="6842910" value="1"/>
  <variable name="X(96,44,9742)" index="6860961" value="1"/>
  <variable name="X(96,223,85)" index="6864134" value="1"/>
  <variable name="X(97,44,9853)" index="6886732" value="1"/>
  <variable name="X(97,224,86)" index="6889795" value="1"/>
  <variable name="X(98,44,9944)" index="6912483" value="1"/>
  <variable name="X(98,225,210)" index="6915579" value="1"/>
  <variable name="X(99,44,10051)" index="6938250" value="1"/>
  <variable name="X(99,226,87)" index="6941116" value="1"/>
  <variable name="X(100,44,10161)" index="6964020" value="1"/>
  <variable name="X(100,227,88)" index="6966777" value="1"/>
  <variable name="X(101,44,10279)" index="6989798" value="1"/>
  <variable name="X(101,228,89)" index="6992438" value="1"/>
  <variable name="X(102,103,10386)" index="7015565" value="1"/>
  <variable name="X(102,229,90)" index="7018099" value="1"/>
  <variable name="X(103,1,119)" index="7030958" value="1"/>
  <variable name="X(103,2,1)" index="7043670" value="1"/>
  <variable name="X(103,3,2)" index="7056501" value="1"/>
  <variable name="X(103,4,3)" index="7069332" value="1"/>
  <variable name="X(103,5,4)" index="7082163" value="1"/>
  <variable name="X(103,6,5)" index="7094994" value="1"/>
  <variable name="X(103,7,6)" index="7107825" value="1"/>
  <variable name="X(103,8,7)" index="7120656" value="1"/>
  <variable name="X(103,9,8)" index="7133487" value="1"/>
  <variable name="X(103,10,9)" index="7146318" value="1"/>
  <variable name="X(103,61,11)" index="7159150" value="1"/>
  <variable name="X(103,102,90)" index="7172059" value="1"/>
  <variable name="X(103,127,27)" index="7184826" value="1"/>
  <variable name="X(103,230,91)" index="7197720" value="1"/>
  <variable name="X(104,127,10623)" index="7221082" value="1"/>
  <variable name="X(105,127,10631)" index="7233920" value="1"/>
  <variable name="X(105,232,1235)" index="7237354" value="1"/>
  <variable name="X(106,127,10741)" index="7259690" value="1"/>
  <variable name="X(106,233,92)" index="7261871" value="1"/>
  <variable name="X(107,127,10857)" index="7285466" value="1"/>
  <variable name="X(107,234,93)" index="7287532" value="1"/>
  <variable name="X(108,127,10951)" index="7311220" value="1"/>
  <variable name="X(108,235,94)" index="7313193" value="1"/>
  <variable name="X(109,127,11063)" index="7336992" value="1"/>
  <variable name="X(109,236,95)" index="7338854" value="1"/>
  <variable name="X(110,127,11181)" index="7362770" value="1"/>
  <variable name="X(110,237,96)" index="7364515" value="1"/>
  <variable name="X(111,127,11272)" index="7388521" value="1"/>
  <variable name="X(111,238,221)" index="7390300" value="1"/>
  <variable name="X(112,127,11357)" index="7414266" value="1"/>
  <variable name="X(112,239,97)" index="7415836" value="1"/>
  <variable name="X(113,127,11456)" index="7440025" value="1"/>
  <variable name="X(113,240,98)" index="7441497" value="1"/>
  <variable name="X(114,44,11571)" index="7465800" value="1"/>
  <variable name="X(114,241,224)" index="7467283" value="1"/>
  <variable name="X(115,44,11608)" index="7491497" value="1"/>
  <variable name="X(115,242,99)" index="7492818" value="1"/>
  <variable name="X(116,44,11715)" index="7517264" value="1"/>
  <variable name="X(116,243,226)" index="7518605" value="1"/>
  <variable name="X(117,44,11802)" index="7543011" value="1"/>
  <variable name="X(117,244,100)" index="7544139" value="1"/>
  <variable name="X(118,44,11911)" index="7568780" value="1"/>
  <variable name="X(118,245,101)" index="7569800" value="1"/>
  <variable name="X(119,44,11916)" index="7594445" value="1"/>
  <variable name="X(119,246,102)" index="7595461" value="1"/>
  <variable name="X(120,121,104)" index="7608293" value="1"/>
  <variable name="X(120,122,105)" index="7621124" value="1"/>
  <variable name="X(120,123,106)" index="7633955" value="1"/>
  <variable name="X(120,124,107)" index="7646786" value="1"/>
  <variable name="X(120,125,108)" index="7659617" value="1"/>
  <variable name="X(120,126,1256)" index="7673595" value="1"/>
  <variable name="X(120,127,12022)" index="7697191" value="1"/>
  <variable name="X(120,247,103)" index="7698102" value="1"/>
  <variable name="X(121,120,12141)" index="7722970" value="1"/>
  <variable name="X(121,248,104)" index="7723763" value="1"/>
  <variable name="X(122,120,12150)" index="7748639" value="1"/>
  <variable name="X(122,249,105)" index="7749424" value="1"/>
  <variable name="X(123,120,12265)" index="7774414" value="1"/>
  <variable name="X(123,250,106)" index="7775085" value="1"/>
  <variable name="X(124,120,12356)" index="7800165" value="1"/>
  <variable name="X(124,251,107)" index="7800746" value="1"/>
  <variable name="X(125,120,12474)" index="7825943" value="1"/>
  <variable name="X(125,252,108)" index="7826407" value="1"/>
  <variable name="X(126,120,12592)" index="7851721" value="1"/>
  <variable name="X(126,253,1256)" index="7853215" value="1"/>
  <variable name="X(127,28,26)" index="7864815" value="1"/>
  <variable name="X(127,29,27)" index="7877646" value="1"/>
  <variable name="X(127,30,28)" index="7890477" value="1"/>
  <variable name="X(127,31,29)" index="7903308" value="1"/>
  <variable name="X(127,32,30)" index="7916139" value="1"/>
  <variable name="X(127,33,31)" index="7928970" value="1"/>
  <variable name="X(127,34,32)" index="7941801" value="1"/>
  <variable name="X(127,35,33)" index="7954632" value="1"/>
  <variable name="X(127,36,34)" index="7967463" value="1"/>
  <variable name="X(127,37,35)" index="7980294" value="1"/>
  <variable name="X(127,73,49)" index="7993138" value="1"/>
  <variable name="X(127,103,2684)" index="8008603" value="1"/>
  <variable name="X(127,105,1235)" index="8019984" value="1"/>
  <variable name="X(127,106,92)" index="8031671" value="1"/>
  <variable name="X(127,107,93)" index="8044502" value="1"/>
  <variable name="X(127,108,94)" index="8057333" value="1"/>
  <variable name="X(127,109,95)" index="8070164" value="1"/>
  <variable name="X(127,110,96)" index="8082995" value="1"/>
  <variable name="X(127,111,221)" index="8095950" value="1"/>
  <variable name="X(127,112,97)" index="8108656" value="1"/>
  <variable name="X(127,113,98)" index="8121487" value="1"/>
  <variable name="X(127,120,104)" index="8134323" value="1"/>
  <variable name="X(127,254,109)" index="8147158" value="1"/>
 </variables>
</CPLEXSolution>
